0 0 0 0
0 1 0 0
0 2 0 0
0 3 0 0
0 4 0 4
0 5 0 4
0 6 1 3
0 7 0 7
0 8 0 10
0 9 0 10
0 10 0 11
0 11 1 16
0 12 0 8
0 13 1 10
0 14 0 7
0 15 0 10
0 16 1 8
0 17 0 15
0 18 0 16
0 19 0 14
0 20 0 15
0 21 2 16
0 22 0 15
0 23 0 22
0 24 2 19
0 25 1 15
0 26 0 22
0 27 1 29
0 28 0 30
0 29 0 30
0 30 1 27
0 31 0 35
